p cnf 27 345
-1 -10 0
-1 -11 0
-1 -12 0
-2 -10 0
-2 -11 0
-2 -12 0
-3 -10 0
-3 -11 0
-3 -12 0
-1 -28 0
-1 -29 0
-1 -30 0
-2 -28 0
-2 -29 0
-2 -30 0
-3 -28 0
-3 -29 0
-3 -30 0
-1 -37 0
-1 -38 0
-1 -39 0
-2 -37 0
-2 -38 0
-2 -39 0
-3 -37 0
-3 -38 0
-3 -39 0
-1 -46 0
-1 -47 0
-1 -48 0
-2 -46 0
-2 -47 0
-2 -48 0
-3 -46 0
-3 -47 0
-3 -48 0
-1 -55 0
-1 -56 0
-1 -57 0
-2 -55 0
-2 -56 0
-2 -57 0
-3 -55 0
-3 -56 0
-3 -57 0
-1 -73 0
-1 -74 0
-1 -75 0
-2 -73 0
-2 -74 0
-2 -75 0
-3 -73 0
-3 -74 0
-3 -75 0
-10 -28 0
-10 -29 0
-10 -30 0
-11 -28 0
-11 -29 0
-11 -30 0
-12 -28 0
-12 -29 0
-12 -30 0
-10 -37 0
-10 -38 0
-10 -39 0
-11 -37 0
-11 -38 0
-11 -39 0
-12 -37 0
-12 -38 0
-12 -39 0
-10 -46 0
-10 -47 0
-10 -48 0
-11 -46 0
-11 -47 0
-11 -48 0
-12 -46 0
-12 -47 0
-12 -48 0
-10 -55 0
-10 -56 0
-10 -57 0
-11 -55 0
-11 -56 0
-11 -57 0
-12 -55 0
-12 -56 0
-12 -57 0
-10 -64 0
-10 -65 0
-10 -66 0
-11 -64 0
-11 -65 0
-11 -66 0
-12 -64 0
-12 -65 0
-12 -66 0
-19 -28 0
-19 -29 0
-19 -30 0
-20 -28 0
-20 -29 0
-20 -30 0
-21 -28 0
-21 -29 0
-21 -30 0
-19 -55 0
-19 -56 0
-19 -57 0
-20 -55 0
-20 -56 0
-20 -57 0
-21 -55 0
-21 -56 0
-21 -57 0
-28 -55 0
-28 -56 0
-28 -57 0
-29 -55 0
-29 -56 0
-29 -57 0
-30 -55 0
-30 -56 0
-30 -57 0
-28 -73 0
-28 -74 0
-28 -75 0
-29 -73 0
-29 -74 0
-29 -75 0
-30 -73 0
-30 -74 0
-30 -75 0
-37 -46 0
-37 -47 0
-37 -48 0
-38 -46 0
-38 -47 0
-38 -48 0
-39 -46 0
-39 -47 0
-39 -48 0
-37 -64 0
-37 -65 0
-37 -66 0
-38 -64 0
-38 -65 0
-38 -66 0
-39 -64 0
-39 -65 0
-39 -66 0
-37 -73 0
-37 -74 0
-37 -75 0
-38 -73 0
-38 -74 0
-38 -75 0
-39 -73 0
-39 -74 0
-39 -75 0
-46 -55 0
-46 -56 0
-46 -57 0
-47 -55 0
-47 -56 0
-47 -57 0
-48 -55 0
-48 -56 0
-48 -57 0
-46 -73 0
-46 -74 0
-46 -75 0
-47 -73 0
-47 -74 0
-47 -75 0
-48 -73 0
-48 -74 0
-48 -75 0
-55 -64 0
-55 -65 0
-55 -66 0
-56 -64 0
-56 -65 0
-56 -66 0
-57 -64 0
-57 -65 0
-57 -66 0
-55 -73 0
-55 -74 0
-55 -75 0
-56 -73 0
-56 -74 0
-56 -75 0
-57 -73 0
-57 -74 0
-57 -75 0
-64 -73 0
-64 -74 0
-64 -75 0
-65 -73 0
-65 -74 0
-65 -75 0
-66 -73 0
-66 -74 0
-66 -75 0
-1 -10 0
-1 -19 0
-1 -28 0
-1 -37 0
-1 -46 0
-1 -55 0
-1 -64 0
-1 -73 0
-10 -19 0
-10 -28 0
-10 -37 0
-10 -46 0
-10 -55 0
-10 -64 0
-10 -73 0
-19 -28 0
-19 -37 0
-19 -46 0
-19 -55 0
-19 -64 0
-19 -73 0
-28 -37 0
-28 -46 0
-28 -55 0
-28 -64 0
-28 -73 0
-37 -46 0
-37 -55 0
-37 -64 0
-37 -73 0
-46 -55 0
-46 -64 0
-46 -73 0
-55 -64 0
-55 -73 0
-64 -73 0
1 10 19 28 37 46 55 64 73 0
-2 -11 0
-2 -20 0
-2 -29 0
-2 -38 0
-2 -47 0
-2 -56 0
-2 -65 0
-2 -74 0
-11 -20 0
-11 -29 0
-11 -38 0
-11 -47 0
-11 -56 0
-11 -65 0
-11 -74 0
-20 -29 0
-20 -38 0
-20 -47 0
-20 -56 0
-20 -65 0
-20 -74 0
-29 -38 0
-29 -47 0
-29 -56 0
-29 -65 0
-29 -74 0
-38 -47 0
-38 -56 0
-38 -65 0
-38 -74 0
-47 -56 0
-47 -65 0
-47 -74 0
-56 -65 0
-56 -74 0
-65 -74 0
2 11 20 29 38 47 56 65 74 0
-3 -12 0
-3 -21 0
-3 -30 0
-3 -39 0
-3 -48 0
-3 -57 0
-3 -66 0
-3 -75 0
-12 -21 0
-12 -30 0
-12 -39 0
-12 -48 0
-12 -57 0
-12 -66 0
-12 -75 0
-21 -30 0
-21 -39 0
-21 -48 0
-21 -57 0
-21 -66 0
-21 -75 0
-30 -39 0
-30 -48 0
-30 -57 0
-30 -66 0
-30 -75 0
-39 -48 0
-39 -57 0
-39 -66 0
-39 -75 0
-48 -57 0
-48 -66 0
-48 -75 0
-57 -66 0
-57 -75 0
-66 -75 0
3 12 21 30 39 48 57 66 75 0
-1 -2 0
-1 -3 0
-2 -3 0
-10 -11 0
-10 -12 0
-11 -12 0
-19 -20 0
-19 -21 0
-20 -21 0
-28 -29 0
-28 -30 0
-29 -30 0
-37 -38 0
-37 -39 0
-38 -39 0
-46 -47 0
-46 -48 0
-47 -48 0
-55 -56 0
-55 -57 0
-56 -57 0
-64 -65 0
-64 -66 0
-65 -66 0
-73 -74 0
-73 -75 0
-74 -75 0
